
































































































66 9 12 56 
17 63 58 60 55 
27 5 46 
2 47 3 16 75 
42 4 35 1 
23 14 76 0 
33 69 30 29 
71 28 72 70 38 
40 13 11 74 6 
39 34 64 73 
22 10 41 8 
61 62 51 15 32 
54 65 50 24 52 
31 67 18 53 
49 19 36 57 
48 68 59 26 45 
43 21 25 37 
7 44 20 
